*SENSE:Minimize
NAME          MODEL
ROWS
 N  OBJ
 L  C0000000
 L  C0000001
 L  C0000002
 L  C0000003
 L  C0000004
 L  C0000005
 L  C0000006
 L  C0000007
 G  C0000008
 G  C0000009
 G  C0000010
 G  C0000011
 G  C0000012
 G  C0000013
 G  C0000014
 G  C0000015
 L  C0000016
 L  C0000017
 L  C0000018
 L  C0000019
 L  C0000020
 L  C0000021
 L  C0000022
 L  C0000023
 L  C0000024
 L  C0000025
 L  C0000026
 L  C0000027
 L  C0000028
 L  C0000029
 L  C0000030
 L  C0000031
 G  C0000032
 G  C0000033
 G  C0000034
 G  C0000035
 G  C0000036
 G  C0000037
 G  C0000038
 G  C0000039
 L  C0000040
 L  C0000041
 L  C0000042
 L  C0000043
 L  C0000044
 L  C0000045
 L  C0000046
 L  C0000047
 E  C0000048
 E  C0000049
 E  C0000050
 E  C0000051
 E  C0000052
 E  C0000053
 E  C0000054
 E  C0000055
 E  C0000056
 E  C0000057
 E  C0000058
 E  C0000059
COLUMNS
    X0000000  C0000048   1.000000000000e+00
    X0000001  C0000049   1.000000000000e+00
    X0000002  C0000050   1.000000000000e+00
    X0000003  C0000051   1.000000000000e+00
    X0000004  C0000048  -1.000000000000e+00
    X0000004  OBJ        1.000000000000e+00
    X0000005  C0000049  -1.000000000000e+00
    X0000005  OBJ        1.000000000000e+00
    X0000006  C0000050  -1.000000000000e+00
    X0000006  OBJ        1.000000000000e+00
    X0000007  C0000051  -1.000000000000e+00
    X0000007  OBJ        1.000000000000e+00
    X0000008  C0000057   1.000000000000e+00
    X0000008  OBJ        1.000000000000e+00
    X0000009  C0000058   1.000000000000e+00
    X0000009  OBJ        1.000000000000e+00
    X0000010  C0000059   1.000000000000e+00
    X0000010  OBJ        1.000000000000e+00
    X0000011  OBJ        1.000000000000e+00
    X0000012  C0000057  -1.000000000000e+00
    X0000012  OBJ        1.000000000000e+00
    X0000013  C0000058  -1.000000000000e+00
    X0000013  OBJ        1.000000000000e+00
    X0000014  C0000059  -1.000000000000e+00
    X0000014  OBJ        1.000000000000e+00
    X0000015  OBJ        1.000000000000e+00
    MARK      'MARKER'                 'INTORG'
    X0000016  C0000032   1.000000000000e+00
    X0000016  C0000036   1.000000000000e+00
    X0000016  C0000040   1.000000000000e+00
    X0000016  C0000044   1.000000000000e+00
    X0000016  C0000048   7.500000000000e-01
    X0000016  C0000049  -2.500000000000e-01
    X0000016  C0000050  -2.500000000000e-01
    X0000016  C0000051  -2.500000000000e-01
    X0000016  OBJ        1.000000000000e+02
    MARK      'MARKER'                 'INTEND'
    MARK      'MARKER'                 'INTORG'
    X0000017  C0000033   1.000000000000e+00
    X0000017  C0000037   1.000000000000e+00
    X0000017  C0000041   1.000000000000e+00
    X0000017  C0000045   1.000000000000e+00
    X0000017  C0000048  -2.500000000000e-01
    X0000017  C0000049   7.500000000000e-01
    X0000017  C0000050  -2.500000000000e-01
    X0000017  C0000051  -2.500000000000e-01
    X0000017  OBJ        1.000000000000e+02
    MARK      'MARKER'                 'INTEND'
    MARK      'MARKER'                 'INTORG'
    X0000018  C0000034   1.000000000000e+00
    X0000018  C0000038   1.000000000000e+00
    X0000018  C0000042   1.000000000000e+00
    X0000018  C0000046   1.000000000000e+00
    X0000018  C0000048  -2.500000000000e-01
    X0000018  C0000049  -2.500000000000e-01
    X0000018  C0000050   7.500000000000e-01
    X0000018  C0000051  -2.500000000000e-01
    X0000018  OBJ        1.000000000000e+02
    MARK      'MARKER'                 'INTEND'
    MARK      'MARKER'                 'INTORG'
    X0000019  C0000035   1.000000000000e+00
    X0000019  C0000039   1.000000000000e+00
    X0000019  C0000043   1.000000000000e+00
    X0000019  C0000047   1.000000000000e+00
    X0000019  C0000048  -2.500000000000e-01
    X0000019  C0000049  -2.500000000000e-01
    X0000019  C0000050  -2.500000000000e-01
    X0000019  C0000051   7.500000000000e-01
    X0000019  OBJ        1.000000000000e+02
    MARK      'MARKER'                 'INTEND'
    MARK      'MARKER'                 'INTORG'
    X0000020  C0000008   1.000000000000e+00
    X0000020  C0000012   1.000000000000e+00
    X0000020  C0000016   1.000000000000e+00
    X0000020  C0000020   1.000000000000e+00
    X0000020  OBJ        5.000000000000e+00
    MARK      'MARKER'                 'INTEND'
    MARK      'MARKER'                 'INTORG'
    X0000021  C0000009   1.000000000000e+00
    X0000021  C0000013   1.000000000000e+00
    X0000021  C0000017   1.000000000000e+00
    X0000021  C0000021   1.000000000000e+00
    X0000021  OBJ        5.000000000000e+00
    MARK      'MARKER'                 'INTEND'
    MARK      'MARKER'                 'INTORG'
    X0000022  C0000010   1.000000000000e+00
    X0000022  C0000014   1.000000000000e+00
    X0000022  C0000018   1.000000000000e+00
    X0000022  C0000022   1.000000000000e+00
    X0000022  OBJ        5.000000000000e+00
    MARK      'MARKER'                 'INTEND'
    MARK      'MARKER'                 'INTORG'
    X0000023  C0000011   1.000000000000e+00
    X0000023  C0000015   1.000000000000e+00
    X0000023  C0000019   1.000000000000e+00
    X0000023  C0000023   1.000000000000e+00
    X0000023  OBJ        5.000000000000e+00
    MARK      'MARKER'                 'INTEND'
    MARK      'MARKER'                 'INTORG'
    X0000024  C0000024  -1.000000000000e+06
    X0000024  C0000028   1.000000000000e+06
    X0000024  C0000040   1.000000000000e+06
    X0000024  C0000044  -1.000000000000e+06
    MARK      'MARKER'                 'INTEND'
    MARK      'MARKER'                 'INTORG'
    X0000025  C0000025  -1.000000000000e+06
    X0000025  C0000029   1.000000000000e+06
    X0000025  C0000041   1.000000000000e+06
    X0000025  C0000045  -1.000000000000e+06
    MARK      'MARKER'                 'INTEND'
    MARK      'MARKER'                 'INTORG'
    X0000026  C0000026  -1.000000000000e+06
    X0000026  C0000030   1.000000000000e+06
    X0000026  C0000042   1.000000000000e+06
    X0000026  C0000046  -1.000000000000e+06
    MARK      'MARKER'                 'INTEND'
    MARK      'MARKER'                 'INTORG'
    X0000027  C0000027  -1.000000000000e+06
    X0000027  C0000031   1.000000000000e+06
    X0000027  C0000043   1.000000000000e+06
    X0000027  C0000047  -1.000000000000e+06
    MARK      'MARKER'                 'INTEND'
    MARK      'MARKER'                 'INTORG'
    X0000028  C0000000  -1.000000000000e+06
    X0000028  C0000004   1.000000000000e+06
    X0000028  C0000016   1.000000000000e+06
    X0000028  C0000020  -1.000000000000e+06
    MARK      'MARKER'                 'INTEND'
    MARK      'MARKER'                 'INTORG'
    X0000029  C0000001  -1.000000000000e+06
    X0000029  C0000005   1.000000000000e+06
    X0000029  C0000017   1.000000000000e+06
    X0000029  C0000021  -1.000000000000e+06
    MARK      'MARKER'                 'INTEND'
    MARK      'MARKER'                 'INTORG'
    X0000030  C0000002  -1.000000000000e+06
    X0000030  C0000006   1.000000000000e+06
    X0000030  C0000018   1.000000000000e+06
    X0000030  C0000022  -1.000000000000e+06
    MARK      'MARKER'                 'INTEND'
    MARK      'MARKER'                 'INTORG'
    X0000031  C0000003  -1.000000000000e+06
    X0000031  C0000007   1.000000000000e+06
    X0000031  C0000019   1.000000000000e+06
    X0000031  C0000023  -1.000000000000e+06
    MARK      'MARKER'                 'INTEND'
    MARK      'MARKER'                 'INTORG'
    X0000032  C0000000  -1.000000000000e+00
    X0000032  C0000004   1.000000000000e+00
    X0000032  C0000012  -1.000000000000e+00
    X0000032  C0000020  -1.000000000000e+00
    X0000032  C0000024   1.000000000000e+00
    X0000032  C0000028  -1.000000000000e+00
    X0000032  C0000036   1.000000000000e+00
    X0000032  C0000044   1.000000000000e+00
    X0000032  C0000052   1.000000000000e+00
    X0000032  C0000057   5.882352941176e-02
    MARK      'MARKER'                 'INTEND'
    MARK      'MARKER'                 'INTORG'
    X0000033  C0000024   1.000000000000e+00
    X0000033  C0000028  -1.000000000000e+00
    X0000033  C0000036   1.000000000000e+00
    X0000033  C0000044   1.000000000000e+00
    X0000033  C0000053   1.000000000000e+00
    X0000033  C0000057   5.882352941176e-02
    MARK      'MARKER'                 'INTEND'
    MARK      'MARKER'                 'INTORG'
    X0000034  C0000024   1.000000000000e+00
    X0000034  C0000028  -1.000000000000e+00
    X0000034  C0000036   1.000000000000e+00
    X0000034  C0000044   1.000000000000e+00
    X0000034  C0000054   1.000000000000e+00
    X0000034  C0000057   5.882352941176e-02
    MARK      'MARKER'                 'INTEND'
    MARK      'MARKER'                 'INTORG'
    X0000035  C0000024   1.000000000000e+00
    X0000035  C0000028  -1.000000000000e+00
    X0000035  C0000036   1.000000000000e+00
    X0000035  C0000044   1.000000000000e+00
    X0000035  C0000055   1.000000000000e+00
    X0000035  C0000057   5.882352941176e-02
    MARK      'MARKER'                 'INTEND'
    MARK      'MARKER'                 'INTORG'
    X0000036  C0000024   1.000000000000e+00
    X0000036  C0000028  -1.000000000000e+00
    X0000036  C0000036   1.000000000000e+00
    X0000036  C0000044   1.000000000000e+00
    X0000036  C0000056   1.000000000000e+00
    X0000036  C0000057   5.882352941176e-02
    MARK      'MARKER'                 'INTEND'
    MARK      'MARKER'                 'INTORG'
    X0000037  C0000001  -1.000000000000e+00
    X0000037  C0000005   1.000000000000e+00
    X0000037  C0000013  -1.000000000000e+00
    X0000037  C0000021  -1.000000000000e+00
    X0000037  C0000025   1.000000000000e+00
    X0000037  C0000029  -1.000000000000e+00
    X0000037  C0000037   1.000000000000e+00
    X0000037  C0000045   1.000000000000e+00
    X0000037  C0000052   1.000000000000e+00
    X0000037  C0000057  -7.142857142857e-02
    X0000037  C0000058   7.142857142857e-02
    MARK      'MARKER'                 'INTEND'
    MARK      'MARKER'                 'INTORG'
    X0000038  C0000025   1.000000000000e+00
    X0000038  C0000029  -1.000000000000e+00
    X0000038  C0000037   1.000000000000e+00
    X0000038  C0000045   1.000000000000e+00
    X0000038  C0000053   1.000000000000e+00
    X0000038  C0000057  -7.142857142857e-02
    X0000038  C0000058   7.142857142857e-02
    MARK      'MARKER'                 'INTEND'
    MARK      'MARKER'                 'INTORG'
    X0000039  C0000025   1.000000000000e+00
    X0000039  C0000029  -1.000000000000e+00
    X0000039  C0000037   1.000000000000e+00
    X0000039  C0000045   1.000000000000e+00
    X0000039  C0000054   1.000000000000e+00
    X0000039  C0000057  -7.142857142857e-02
    X0000039  C0000058   7.142857142857e-02
    MARK      'MARKER'                 'INTEND'
    MARK      'MARKER'                 'INTORG'
    X0000040  C0000025   1.000000000000e+00
    X0000040  C0000029  -1.000000000000e+00
    X0000040  C0000037   1.000000000000e+00
    X0000040  C0000045   1.000000000000e+00
    X0000040  C0000055   1.000000000000e+00
    X0000040  C0000057  -7.142857142857e-02
    X0000040  C0000058   7.142857142857e-02
    MARK      'MARKER'                 'INTEND'
    MARK      'MARKER'                 'INTORG'
    X0000041  C0000025   1.000000000000e+00
    X0000041  C0000029  -1.000000000000e+00
    X0000041  C0000037   1.000000000000e+00
    X0000041  C0000045   1.000000000000e+00
    X0000041  C0000056   1.000000000000e+00
    X0000041  C0000057  -7.142857142857e-02
    X0000041  C0000058   7.142857142857e-02
    MARK      'MARKER'                 'INTEND'
    MARK      'MARKER'                 'INTORG'
    X0000042  C0000002  -1.000000000000e+00
    X0000042  C0000006   1.000000000000e+00
    X0000042  C0000014  -1.000000000000e+00
    X0000042  C0000022  -1.000000000000e+00
    X0000042  C0000026   1.000000000000e+00
    X0000042  C0000030  -1.000000000000e+00
    X0000042  C0000038   1.000000000000e+00
    X0000042  C0000046   1.000000000000e+00
    X0000042  C0000052   1.000000000000e+00
    X0000042  C0000058  -2.500000000000e-01
    X0000042  C0000059   2.500000000000e-01
    MARK      'MARKER'                 'INTEND'
    MARK      'MARKER'                 'INTORG'
    X0000043  C0000026   1.000000000000e+00
    X0000043  C0000030  -1.000000000000e+00
    X0000043  C0000038   1.000000000000e+00
    X0000043  C0000046   1.000000000000e+00
    X0000043  C0000053   1.000000000000e+00
    X0000043  C0000058  -2.500000000000e-01
    X0000043  C0000059   2.500000000000e-01
    MARK      'MARKER'                 'INTEND'
    MARK      'MARKER'                 'INTORG'
    X0000044  C0000026   1.000000000000e+00
    X0000044  C0000030  -1.000000000000e+00
    X0000044  C0000038   1.000000000000e+00
    X0000044  C0000046   1.000000000000e+00
    X0000044  C0000054   1.000000000000e+00
    X0000044  C0000058  -2.500000000000e-01
    X0000044  C0000059   2.500000000000e-01
    MARK      'MARKER'                 'INTEND'
    MARK      'MARKER'                 'INTORG'
    X0000045  C0000026   1.000000000000e+00
    X0000045  C0000030  -1.000000000000e+00
    X0000045  C0000038   1.000000000000e+00
    X0000045  C0000046   1.000000000000e+00
    X0000045  C0000055   1.000000000000e+00
    X0000045  C0000058  -2.500000000000e-01
    X0000045  C0000059   2.500000000000e-01
    MARK      'MARKER'                 'INTEND'
    MARK      'MARKER'                 'INTORG'
    X0000046  C0000026   1.000000000000e+00
    X0000046  C0000030  -1.000000000000e+00
    X0000046  C0000038   1.000000000000e+00
    X0000046  C0000046   1.000000000000e+00
    X0000046  C0000056   1.000000000000e+00
    X0000046  C0000058  -2.500000000000e-01
    X0000046  C0000059   2.500000000000e-01
    MARK      'MARKER'                 'INTEND'
    MARK      'MARKER'                 'INTORG'
    X0000047  C0000003  -1.000000000000e+00
    X0000047  C0000007   1.000000000000e+00
    X0000047  C0000015  -1.000000000000e+00
    X0000047  C0000023  -1.000000000000e+00
    X0000047  C0000027   1.000000000000e+00
    X0000047  C0000031  -1.000000000000e+00
    X0000047  C0000039   1.000000000000e+00
    X0000047  C0000047   1.000000000000e+00
    X0000047  C0000052   1.000000000000e+00
    X0000047  C0000059  -3.333333333333e-01
    MARK      'MARKER'                 'INTEND'
    MARK      'MARKER'                 'INTORG'
    X0000048  C0000027   1.000000000000e+00
    X0000048  C0000031  -1.000000000000e+00
    X0000048  C0000039   1.000000000000e+00
    X0000048  C0000047   1.000000000000e+00
    X0000048  C0000053   1.000000000000e+00
    X0000048  C0000059  -3.333333333333e-01
    MARK      'MARKER'                 'INTEND'
    MARK      'MARKER'                 'INTORG'
    X0000049  C0000027   1.000000000000e+00
    X0000049  C0000031  -1.000000000000e+00
    X0000049  C0000039   1.000000000000e+00
    X0000049  C0000047   1.000000000000e+00
    X0000049  C0000054   1.000000000000e+00
    X0000049  C0000059  -3.333333333333e-01
    MARK      'MARKER'                 'INTEND'
    MARK      'MARKER'                 'INTORG'
    X0000050  C0000027   1.000000000000e+00
    X0000050  C0000031  -1.000000000000e+00
    X0000050  C0000039   1.000000000000e+00
    X0000050  C0000047   1.000000000000e+00
    X0000050  C0000055   1.000000000000e+00
    X0000050  C0000059  -3.333333333333e-01
    MARK      'MARKER'                 'INTEND'
    MARK      'MARKER'                 'INTORG'
    X0000051  C0000027   1.000000000000e+00
    X0000051  C0000031  -1.000000000000e+00
    X0000051  C0000039   1.000000000000e+00
    X0000051  C0000047   1.000000000000e+00
    X0000051  C0000056   1.000000000000e+00
    X0000051  C0000059  -3.333333333333e-01
    MARK      'MARKER'                 'INTEND'
RHS
    RHS       C0000000   2.200000000000e+01
    RHS       C0000001   1.200000000000e+01
    RHS       C0000002  -4.000000000000e+00
    RHS       C0000003  -3.000000000000e+00
    RHS       C0000004   9.999780000000e+05
    RHS       C0000005   9.999880000000e+05
    RHS       C0000006   1.000004000000e+06
    RHS       C0000007   1.000003000000e+06
    RHS       C0000008   0.000000000000e+00
    RHS       C0000009   0.000000000000e+00
    RHS       C0000010   0.000000000000e+00
    RHS       C0000011   0.000000000000e+00
    RHS       C0000012   2.200000000000e+01
    RHS       C0000013   1.200000000000e+01
    RHS       C0000014  -4.000000000000e+00
    RHS       C0000015  -3.000000000000e+00
    RHS       C0000016   1.000000000000e+06
    RHS       C0000017   1.000000000000e+06
    RHS       C0000018   1.000000000000e+06
    RHS       C0000019   1.000000000000e+06
    RHS       C0000020   2.200000000000e+01
    RHS       C0000021   1.200000000000e+01
    RHS       C0000022  -4.000000000000e+00
    RHS       C0000023  -3.000000000000e+00
    RHS       C0000024  -3.100000000000e+01
    RHS       C0000025  -4.900000000000e+01
    RHS       C0000026  -3.600000000000e+01
    RHS       C0000027  -2.500000000000e+01
    RHS       C0000028   1.000031000000e+06
    RHS       C0000029   1.000049000000e+06
    RHS       C0000030   1.000036000000e+06
    RHS       C0000031   1.000025000000e+06
    RHS       C0000032   0.000000000000e+00
    RHS       C0000033   0.000000000000e+00
    RHS       C0000034   0.000000000000e+00
    RHS       C0000035   0.000000000000e+00
    RHS       C0000036  -3.100000000000e+01
    RHS       C0000037  -4.900000000000e+01
    RHS       C0000038  -3.600000000000e+01
    RHS       C0000039  -2.500000000000e+01
    RHS       C0000040   1.000000000000e+06
    RHS       C0000041   1.000000000000e+06
    RHS       C0000042   1.000000000000e+06
    RHS       C0000043   1.000000000000e+06
    RHS       C0000044  -3.100000000000e+01
    RHS       C0000045  -4.900000000000e+01
    RHS       C0000046  -3.600000000000e+01
    RHS       C0000047  -2.500000000000e+01
    RHS       C0000048   0.000000000000e+00
    RHS       C0000049   0.000000000000e+00
    RHS       C0000050   0.000000000000e+00
    RHS       C0000051   0.000000000000e+00
    RHS       C0000052   0.000000000000e+00
    RHS       C0000053   0.000000000000e+00
    RHS       C0000054   6.000000000000e+00
    RHS       C0000055   2.900000000000e+01
    RHS       C0000056   5.800000000000e+01
    RHS       C0000057   0.000000000000e+00
    RHS       C0000058   0.000000000000e+00
    RHS       C0000059   0.000000000000e+00
BOUNDS
 LO BND       X0000016   0.000000000000e+00
 LO BND       X0000017   0.000000000000e+00
 LO BND       X0000018   0.000000000000e+00
 LO BND       X0000019   0.000000000000e+00
 LO BND       X0000020   0.000000000000e+00
 LO BND       X0000021   0.000000000000e+00
 LO BND       X0000022   0.000000000000e+00
 LO BND       X0000023   0.000000000000e+00
 BV BND       X0000024
 BV BND       X0000025
 BV BND       X0000026
 BV BND       X0000027
 BV BND       X0000028
 BV BND       X0000029
 BV BND       X0000030
 BV BND       X0000031
 LO BND       X0000032   0.000000000000e+00
 LO BND       X0000033   0.000000000000e+00
 LO BND       X0000034   0.000000000000e+00
 LO BND       X0000035   0.000000000000e+00
 LO BND       X0000036   0.000000000000e+00
 LO BND       X0000037   0.000000000000e+00
 LO BND       X0000038   0.000000000000e+00
 LO BND       X0000039   0.000000000000e+00
 LO BND       X0000040   0.000000000000e+00
 LO BND       X0000041   0.000000000000e+00
 LO BND       X0000042   0.000000000000e+00
 LO BND       X0000043   0.000000000000e+00
 LO BND       X0000044   0.000000000000e+00
 LO BND       X0000045   0.000000000000e+00
 LO BND       X0000046   0.000000000000e+00
 LO BND       X0000047   0.000000000000e+00
 LO BND       X0000048   0.000000000000e+00
 LO BND       X0000049   0.000000000000e+00
 LO BND       X0000050   0.000000000000e+00
 LO BND       X0000051   0.000000000000e+00
ENDATA
